\* Problem: Unknown *\

Maximize
 obj: + xp_0_0 + xp_0_1 + xp_0_2 + xp_0_3 + xp_0_4 + xp_0_5 + xp_1_0
 + xp_1_1 + xp_1_2 + xp_2_0 + xp_2_1 + xp_2_2 + xp_2_3 + xp_2_4 + xp_2_5
 + xp_3_0 + xp_3_1 + xp_4_0 + xp_4_1 + xp_4_2 + xp_5_0 + xp_5_1 + xp_5_2
 + xp_6_0 + xp_6_1 + xp_6_2 + xp_6_3 + xp_6_4 + xp_7_0 + xp_7_1 + xp_8_0
 + xp_8_1 + xp_9_0 + xp_10_0 + xp_10_1 + xp_11_0 + xp_11_1 + xp_11_2
 + xp_11_3 + xp_12_0 + xp_12_1 + xp_13_0 + xp_13_1 + xp_14_0 + xp_14_1
 + xp_15_0 + xp_15_1 + xp_16_0 + xp_17_0 + xp_17_1 + xp_17_2 + xp_17_3
 + xp_17_4 + xp_18_0 + xp_18_1 + xp_18_2 + xp_18_3 + xp_19_0 + xp_19_1
 + xp_19_2 + xp_19_3 + xp_19_4 + xp_19_5 + xp_19_6 + xp_20_0 + xp_20_1
 + xp_20_2 + xp_20_3 + xp_21_0 + xp_21_1 + xp_21_2 + xp_21_3 + xp_21_4
 + xp_22_0 + xp_22_1 + xp_22_2 + xp_22_3 + xp_22_4 + xp_23_0 + xp_23_1

Subject To
 r_1: 0 xp_0_0 <= 25.7482284285119
 r_2: + xp_18_2 + xp_15_1 + xp_12_1 + xp_6_3 + xp_5_2 + xp_2_5 + xp_2_2
 <= 25.8070099524016
 r_3: + xp_21_4 + xp_8_1 + xp_6_1 <= 26.2815479528884
 r_4: + xp_18_3 + xp_17_2 + xp_15_0 <= 26.7924528301887
 r_5: + xp_18_0 <= 25.5951933909125
 r_6: + xp_18_1 <= 26.5090230242688
 r_7: + xp_20_2 <= 25.7482284285119
 r_8: + xp_11_1 + xp_5_1 + xp_2_3 <= 25.8070099524016
 r_9: + xp_11_3 + xp_6_4 + xp_3_1 <= 26.2815479528884
 r_10: + xp_3_0 <= 26.7924528301887
 r_11: + xp_18_1 + xp_11_2 <= 25.5951933909125
 r_12: + xp_11_0 <= 26.5090230242688
 r_13: 0 xp_0_0 <= 27.6367006487488
 r_14: + xp_21_3 + xp_19_2 + xp_14_0 + xp_4_2 + xp_0_4 + xp_0_2
 <= 25.8070099524016
 r_15: + xp_21_0 + xp_19_4 + xp_4_1 <= 26.2815479528884
 r_16: + xp_22_1 + xp_21_1 + xp_17_4 + xp_0_5 + xp_0_3 + xp_0_1
 <= 27.1553784860558
 r_17: + xp_19_5 + xp_0_0 <= 25.5951933909125
 r_18: + xp_21_4 + xp_4_0 <= 25.7482284285119
 r_19: + xp_19_0 <= 25.7482284285119
 r_20: + xp_21_2 + xp_19_6 + xp_19_3 + xp_19_1 + xp_14_1
 <= 27.6367006487488
 r_21: + xp_20_1 <= 25.8070099524016
 r_22: + xp_21_3 + xp_7_1 <= 26.2815479528884
 r_23: + xp_22_2 <= 27.1553784860558
 r_24: + xp_15_1 + xp_6_3 + xp_0_4 <= 26.2815479528884
 r_25: 0 xp_0_0 <= 27.6367006487488
 r_26: + xp_18_2 + xp_0_2 <= 25.5951933909125
 r_27: + xp_11_1 + xp_4_2 <= 25.8070099524016
 r_28: + xp_19_3 + xp_19_2 + xp_10_1 <= 25.8070099524016
 r_29: + xp_20_3 <= 26.2815479528884
 r_30: + xp_2_0 <= 26.2815479528884
 r_31: + xp_8_1 + xp_6_4 + xp_6_1 + xp_3_1 + xp_2_5 + xp_2_4
 <= 26.2815479528884
 r_32: + xp_2_1 <= 27.6367006487488
 r_33: + xp_11_3 + xp_4_1 + xp_2_2 <= 26.2815479528884
 r_34: + xp_19_6 + xp_19_4 + xp_2_3 <= 26.2815479528884
 r_35: 0 xp_0_0 <= 27.1553784860558
 r_36: + xp_9_0 <= 27.1553784860558
 r_37: + xp_21_1 + xp_13_1 + xp_6_2 + xp_0_5 <= 26.2815479528884
 r_38: + xp_1_1 <= 29.2984869325997
 r_39: + xp_17_4 + xp_17_3 + xp_0_3 <= 26.7924528301887
 r_40: + xp_0_1 <= 25.5951933909125
 r_41: + xp_12_0 + xp_2_4 <= 26.2815479528884
 r_42: + xp_21_1 <= 26.2815479528884
 r_43: + xp_16_0 <= 26.2815479528884
 r_44: + xp_23_1 + xp_22_3 + xp_1_2 <= 29.2984869325997
 r_45: + xp_15_1 + xp_12_1 + xp_3_1 + xp_2_5 <= 26.7924528301887
 r_46: + xp_0_5 + xp_0_4 <= 25.5951933909125
 r_47: + xp_22_4 + xp_22_3 + xp_13_1 <= 29.2984869325997
 r_48: + xp_13_0 <= 29.2984869325997
 r_49: + xp_17_1 <= 26.7924528301887
 r_50: 0 xp_0_0 <= 25.5951933909125
 r_51: + xp_1_1 <= 26.7924528301887
 r_52: + xp_8_0 + xp_1_2 <= 26.7924528301887
 r_53: + xp_1_0 <= 26.7924528301887
 r_54: + xp_18_3 + xp_0_3 <= 25.5951933909125
 r_55: + xp_12_1 + xp_8_1 + xp_2_5 <= 26.7924528301887
 r_56: 0 xp_0_0 <= 26.7924528301887
 r_57: + xp_22_1 + xp_17_4 <= 25.5951933909125
 r_58: + xp_22_2 + xp_5_0 <= 25.5951933909125
 r_59: + xp_22_0 + xp_17_3 + xp_6_2 <= 25.5951933909125
 r_60: + xp_23_1 + xp_22_3 + xp_6_0 <= 25.5951933909125
 r_61: + xp_23_0 + xp_22_4 + xp_17_1 <= 25.5951933909125
 r_62: + xp_17_0 <= 25.5951933909125
 r_63: + xp_17_2 + xp_11_2 + xp_6_3 + xp_6_1 + xp_5_2
 <= 25.5951933909125
 r_64: + xp_19_5 + xp_6_4 + xp_5_1 <= 25.5951933909125
 r_65: + xp_20_1 + xp_19_3 + xp_14_1 + xp_10_1 + xp_7_1 + xp_2_1
 <= 27.6367006487488
 r_66: + xp_21_2 + xp_20_3 + xp_19_6 + xp_7_0 <= 27.6367006487488
 r_67: + xp_20_2 + xp_19_1 + xp_10_0 <= 27.6367006487488
 r_68: + xp_20_0 <= 27.6367006487488

Bounds
 0 <= xp_0_0 <= 25.7142857142857
 0 <= xp_0_1 <= 12.8571428571429
 0 <= xp_0_2 <= 8.57142857142857
 0 <= xp_0_3 <= 4.28571428571428
 0 <= xp_0_4 <= 4.28571428571428
 0 <= xp_0_5 <= 4.28571428571428
 0 <= xp_1_0 <= 19.4439857142857
 0 <= xp_1_1 <= 14.0077071428571
 0 <= xp_1_2 <= 0.575282142857143
 0 <= xp_2_0 <= 21.9360257142857
 0 <= xp_2_1 <= 4.28571428571428
 0 <= xp_2_2 <= 1.52236285714286
 0 <= xp_2_3 <= 1.01490857142857
 0 <= xp_2_4 <= 4.28571428571428
 0 <= xp_2_5 <= 0.507454285714286
 0 <= xp_3_0 <= 25.7142857142857
 0 <= xp_3_1 <= 4.28571428571428
 0 <= xp_4_0 <= 18.0874285714286
 0 <= xp_4_1 <= 3.61748571428571
 0 <= xp_4_2 <= 3.61748571428571
 0 <= xp_5_0 <= 10.8524571428571
 0 <= xp_5_1 <= 10.8524571428571
 0 <= xp_5_2 <= 3.61748571428571
 0 <= xp_6_0 <= 9.76721142857143
 0 <= xp_6_1 <= 3.25573714285714
 0 <= xp_6_2 <= 3.25573714285714
 0 <= xp_6_3 <= 3.25573714285714
 0 <= xp_6_4 <= 3.25573714285714
 0 <= xp_7_0 <= 18.7204885714286
 0 <= xp_7_1 <= 3.12008142857143
 0 <= xp_8_0 <= 16.8213085714286
 0 <= xp_8_1 <= 2.80355142857143
 0 <= xp_9_0 <= 18.200475
 0 <= xp_10_0 <= 15.6004071428571
 0 <= xp_10_1 <= 2.60006785714286
 0 <= xp_11_0 <= 24.3476914285714
 0 <= xp_11_1 <= 12.5154942857143
 0 <= xp_11_2 <= 8.22978
 0 <= xp_11_3 <= 12.5154942857143
 0 <= xp_12_0 <= 14.6508171428571
 0 <= xp_12_1 <= 2.44180285714286
 0 <= xp_13_0 <= 14.24385
 0 <= xp_13_1 <= 2.373975
 0 <= xp_14_0 <= 6.78278571428571
 0 <= xp_14_1 <= 9.04371428571428
 0 <= xp_15_0 <= 13.4299157142857
 0 <= xp_15_1 <= 2.23831928571428
 0 <= xp_16_0 <= 15.035175
 0 <= xp_17_0 <= 27.4275728571428
 0 <= xp_17_1 <= 3.99933428571428
 0 <= xp_17_2 <= 4.28571428571428
 0 <= xp_17_3 <= 6.28538142857143
 0 <= xp_17_4 <= 1.99966714285714
 0 <= xp_18_0 <= 22.3279242857143
 0 <= xp_18_1 <= 11.1991371428571
 0 <= xp_18_2 <= 4.28571428571428
 0 <= xp_18_3 <= 4.28571428571428
 0 <= xp_19_0 <= 29.0353414285714
 0 <= xp_19_1 <= 1.66052785714286
 0 <= xp_19_2 <= 1.66052785714286
 0 <= xp_19_3 <= 4.28571428571428
 0 <= xp_19_4 <= 1.66052785714286
 0 <= xp_19_5 <= 1.66052785714286
 0 <= xp_19_6 <= 1.66052785714286
 0 <= xp_20_0 <= 28.8092485714286
 0 <= xp_20_1 <= 3.09496285714286
 0 <= xp_20_2 <= 5.83319571428571
 0 <= xp_20_3 <= 3.09496285714286
 0 <= xp_21_0 <= 24.02613
 0 <= xp_21_1 <= 2.59755857142857
 0 <= xp_21_2 <= 1.29877928571428
 0 <= xp_21_3 <= 1.29877928571428
 0 <= xp_21_4 <= 9.87020785714286
 0 <= xp_22_0 <= 16.0752021428571
 0 <= xp_22_1 <= 1.07268642857143
 0 <= xp_22_2 <= 17.1428571428571
 0 <= xp_22_3 <= 2.14537285714285
 0 <= xp_22_4 <= 1.07268642857143
 0 <= xp_23_0 <= 21.4336028571428
 0 <= xp_23_1 <= 16.0752021428571

End
